NAME : ClusterId_1026 
COMMENT : (Gillet and Johnson) 
TYPE : CVRP 
DIMENSION : 17 
EDGE_WEIGHT_TYPE : EUC_2D 
CAPACITY : 500 
NODE_COORD_SECTION 
1026 5305 7482 
345 4767 8234 
991 4591 8191 
484 5272 8066 
440 5126 7864 
371 4926 7791 
320 5732 7642 
746 5537 7543 
803 5308 7416 
856 5500 7212 
753 5569 7015 
914 5212 6967 
190 5797 6822 
587 5334 6757 
13 5270 6677 
97 6036 6543 
544 5231 6540 
DEMAND_SECTION 
1026 694
345 34
991 47
484 53
440 56
371 35
320 46
746 46
803 41
856 38
753 33
914 50
190 54
587 28
13 48
97 51
544 33
DEPOT_SECTION 
1026
 -1
EOF